100 71503

 721 817
688 989
96 389
923 48
569 802
364 605
757 199
258 495
694 743
40 771
840 500
449 306
637 974
222 664
678 409
773 281
474 732
618 243
457 172
895 530
498 290
842 629
802 118
411 655
231 284
407 1
827 127
228 934
525 868
807 234
354 779
643 609
246 971
110 374
795 682
99 64
272 397
856 964
347 539
974 288
980 121
269 704
41 645
706 374
451 951
101 23
708 304
32 922
871 321
139 253
128 535
176 824
961 104
694 944
802 796
398 182
337 713
235 385
481 403
552 784
632 963
258 127
949 421
170 481
966 377
15 364
482 53
334 686
450 437
571 195
436 817
415 803
733 487
686 299
834 639
250 289
610 237
586 731
370 41
487 95
314 7
142 153
214 69
106 996
684 289
661 150
951 241
730 937
53 521
885 365
863 874
444 395
586 336
977 208
533 378
906 317
84 678
192 290
441 578
585 66
